c description: Random 3-CNF over 17 variables and 72 clauses
c generator: CNFgen (0.9.2)
c copyright: (C) 2012-2022 Massimo Lauria <massimo.lauria@uniroma1.it>
c url: https://massimolauria.net/cnfgen
c command line: cnfgen --output CNF_4.28/17_bit_72_958.cnf randkcnf 3 17 72
c
p cnf 17 72
7 9 -10 0
-4 8 -12 0
1 6 -17 0
-10 11 17 0
-4 14 -15 0
-10 -13 -17 0
5 -11 15 0
2 -7 14 0
-5 -12 -14 0
4 9 17 0
3 -15 17 0
-10 -12 15 0
7 10 -11 0
4 -6 -15 0
-3 -14 16 0
-11 13 15 0
3 -6 -17 0
-7 -8 -12 0
13 -14 15 0
4 6 -17 0
4 -7 10 0
-7 8 -12 0
-11 -15 -16 0
12 -13 -15 0
-11 -13 17 0
4 11 -14 0
4 10 17 0
3 12 -13 0
2 4 5 0
-6 7 10 0
8 -11 17 0
-1 5 17 0
-4 -6 7 0
-6 13 -15 0
-5 7 -12 0
8 -10 -17 0
4 10 15 0
-8 10 -14 0
-1 4 -5 0
-2 -5 10 0
-3 4 -7 0
2 -13 -14 0
-2 -4 -6 0
-7 9 -14 0
-1 -8 11 0
5 -6 9 0
-7 -10 -14 0
-3 -7 17 0
2 -6 -7 0
2 -5 14 0
12 15 16 0
3 -4 -9 0
5 -6 16 0
4 -8 10 0
11 -14 -15 0
-2 7 11 0
12 14 -17 0
9 11 -14 0
3 5 15 0
1 -2 10 0
-2 -10 13 0
7 12 17 0
-1 -9 -16 0
3 -14 17 0
1 -3 -11 0
-1 -6 -16 0
7 -14 16 0
-10 -11 -15 0
3 -10 -16 0
5 -10 -14 0
1 2 16 0
2 11 -12 0
